66
150
120	2
118	1
117	1
116	3
113	3
111	1
110	1
108	2
105	2
104	1
102	3
101	2
99	1
97	1
95	2
93	2
89	2
88	1
87	1
85	1
84	3
83	1
81	1
80	1
79	2
75	1
73	1
71	1
70	1
68	2
66	2
65	2
64	1
61	1
59	1
58	2
57	2
56	1
55	1
53	1
52	1
51	1
50	1
48	3
46	4
43	1
42	3
40	1
39	1
38	1
37	2
36	3
35	1
33	2
32	1
31	1
29	1
28	1
26	1
25	1
23	2
22	1
21	2
20	1
17	1
16	1
